SimulationType                MonteCarlo
NumberOfCycles                0
NumberOfInitializationCycles  0
PrintEvery                    1
#RandomSeed                    1737124642
Forcefield                    Local
# important: comment out the line below with # when "starting from scratch" (see README.md)
RestartFile                   yes

UseChargesFromCIFFile yes

PrintPropertiesEvery 1

WriteBinaryRestartFileEvery 1
RemoveAtomNumberCodeFromLabel yes
UseChargesFromCIFFile yes
CutOffVDW 12

ChargeMethod Ewald
#CoulombTruncated
#Ewald
#Ewald#CoulombSmoothed#CoulombShifted

# used to compute Ewald parameter alpha
EwaldPrecision 1e-9
CutOffChargeCharge 12
#CutOffChargeChargeSwitch 3

Movies no
#ExternalTemperature 300.0
Framework 0
   FrameworkName RSM0290
   ExternalPressure 283.71653072020004
   ExternalTemperature 298.15
   HeliumVoidFraction 0.16196
   UnitCells 4 4 2

Component 0 MoleculeName             XX
            MoleculeDefinition       example_structure_1_atom
#important: create one molecule in first calculation ("starting from scratch). then comment/delete this (below) line with # when starting from restart file to not create a second molecule
#CreateNumberOfMolecules  1
            TranslationProbability   1.0
            ReinsertionProbability   1.0
            RotationProbability 1.0
            WidomProbability 0.0

# what to check: 
#1 MOF: right cif. charges (in cif), LJ params (atoms of cif, UFF params in force_field_mixing_rules.def)
#2 adsorbate: XX with atom XXX: charges (in pseudo_atoms.def), LJ params (in force_field_mixing_rules.def)
#3 VDW/LJ interaction: params in force_field_mixing_rules.def, CutOffVDW (default:12)
#4 Coulomb interaction: charges in cif and XX.def, ChargeMethod Ewald/CoulombTruncated, EwaldPrecision 1e-9, 
#  CutOffChargeCharge (default: 12)
