%BLOCK LATTICE_CART
ang    # angstrom units
  10.000000000000    0.000000000000     0.000000000000   
  4.999991990890     10.000004130331    0.000000000000   
  0.000000000000     0.000000000000     10.000000000000  
%ENDBLOCK LATTICE_CART

%BLOCK POSITIONS_FRAC
Nd     0.250000000000     0.750000000000     0.250000000000   
Nd     0.250000000000     0.500000000000     0.750000000000   
H      0.000000000000     0.000000000000     0.000000000000   
%ENDBLOCK POSITIONS_FRAC
