%BLOCK LATTICE_CART
ang    # angstrom units
  7.551760000000     0.000000000000     0.000000000000   
  0.000000000000     7.551700000000     0.000000000000   
  0.000000000000     0.000000000000     12.883240000000  
%ENDBLOCK LATTICE_CART

%BLOCK POSITIONS_FRAC
Mg     0.111325000000     0.029492500000     0.390890000000   
Mg     0.138675000000     0.220507500000     0.140890000000   
Mg     0.220507500000     0.111325000000     0.015890000000   
Mg     0.029492500000     0.138675000000     0.265890000000   
H      0.101742500000     0.023357500000     0.495995000000   
H      0.064322500000     0.212375000000     0.498490000000   
H      0.152237500000     0.178785000000     0.453700000000   
H      0.111002500000     0.142827500000     0.477065000000   
H      0.148257500000     0.226642500000     0.245995000000   
H      0.185677500000     0.037625000000     0.248490000000   
H      0.097762500000     0.071217500000     0.203700000000   
H      0.138997500000     0.107172500000     0.227065000000   
H      0.226642500000     0.101742500000     0.120995000000   
H      0.037625000000     0.064322500000     0.123490000000   
H      0.071215000000     0.152235000000     0.078700000000   
H      0.107172500000     0.111002500000     0.102065000000   
H      0.023357500000     0.148260000000     0.370995000000   
H      0.212375000000     0.185680000000     0.373490000000   
H      0.178785000000     0.097765000000     0.328700000000   
H      0.142827500000     0.138997500000     0.352065000000   
C      0.067967500000     0.198640000000     0.416740000000   
C      0.090017500000     0.211150000000     0.468285000000   
C      0.124852500000     0.176337500000     0.481540000000   
C      0.144672500000     0.179560000000     0.035260000000   
C      0.182032500000     0.051360000000     0.166740000000   
C      0.159982500000     0.038850000000     0.218285000000   
C      0.125147500000     0.073662500000     0.231545000000   
C      0.105327500000     0.070440000000     0.285260000000   
C      0.051357500000     0.067967500000     0.041740000000   
C      0.038850000000     0.090017500000     0.093285000000   
C      0.073662500000     0.124850000000     0.106545000000   
C      0.070437500000     0.144670000000     0.160260000000   
C      0.198642500000     0.182032500000     0.291740000000   
C      0.211150000000     0.159985000000     0.343285000000   
C      0.176337500000     0.125150000000     0.356540000000   
C      0.179562500000     0.105330000000     0.410260000000   
O      0.072705000000     0.225032500000     0.378175000000   
O      0.047655000000     0.162062500000     0.416585000000   
O      0.177040000000     0.154320000000     0.046930000000   
O      0.127375000000     0.206412500000     0.067330000000   
O      0.110340000000     0.003797500000     0.463530000000   
O      0.177295000000     0.024967500000     0.128180000000   
O      0.202345000000     0.087937500000     0.166585000000   
O      0.072960000000     0.095680000000     0.296930000000   
O      0.122625000000     0.043587500000     0.317325000000   
O      0.139660000000     0.246202500000     0.213530000000   
O      0.024970000000     0.072702500000     0.003180000000   
O      0.087937500000     0.047652500000     0.041585000000   
O      0.095680000000     0.177042500000     0.171930000000   
O      0.043590000000     0.127377500000     0.192325000000   
O      0.246202500000     0.110340000000     0.088530000000   
O      0.225030000000     0.177297500000     0.253180000000   
O      0.162062500000     0.202350000000     0.291585000000   
O      0.154320000000     0.072957500000     0.421930000000   
O      0.206410000000     0.122625000000     0.442325000000   
O      0.003797500000     0.139660000000     0.338530000000   
Mg     0.111325000000     0.029492500000     0.890890000000   
Mg     0.138675000000     0.220507500000     0.640890000000   
Mg     0.220507500000     0.111325000000     0.515890000000   
Mg     0.029492500000     0.138675000000     0.765890000000   
H      0.101742500000     0.023357500000     0.995995000000   
H      0.064322500000     0.212375000000     0.998490000000   
H      0.152237500000     0.178785000000     0.953700000000   
H      0.111002500000     0.142827500000     0.977065000000   
H      0.148257500000     0.226642500000     0.745995000000   
H      0.185677500000     0.037625000000     0.748490000000   
H      0.097762500000     0.071217500000     0.703700000000   
H      0.138997500000     0.107172500000     0.727065000000   
H      0.226642500000     0.101742500000     0.620995000000   
H      0.037625000000     0.064322500000     0.623490000000   
H      0.071215000000     0.152235000000     0.578700000000   
H      0.107172500000     0.111002500000     0.602065000000   
H      0.023357500000     0.148260000000     0.870995000000   
H      0.212375000000     0.185680000000     0.873490000000   
H      0.178785000000     0.097765000000     0.828700000000   
H      0.142827500000     0.138997500000     0.852065000000   
C      0.067967500000     0.198640000000     0.916740000000   
C      0.090017500000     0.211150000000     0.968285000000   
C      0.124852500000     0.176337500000     0.981540000000   
C      0.144672500000     0.179560000000     0.535260000000   
C      0.182032500000     0.051360000000     0.666740000000   
C      0.159982500000     0.038850000000     0.718285000000   
C      0.125147500000     0.073662500000     0.731545000000   
C      0.105327500000     0.070440000000     0.785260000000   
C      0.051357500000     0.067967500000     0.541740000000   
C      0.038850000000     0.090017500000     0.593285000000   
C      0.073662500000     0.124850000000     0.606545000000   
C      0.070437500000     0.144670000000     0.660260000000   
C      0.198642500000     0.182032500000     0.791740000000   
C      0.211150000000     0.159985000000     0.843285000000   
C      0.176337500000     0.125150000000     0.856540000000   
C      0.179562500000     0.105330000000     0.910260000000   
O      0.072705000000     0.225032500000     0.878175000000   
O      0.047655000000     0.162062500000     0.916585000000   
O      0.177040000000     0.154320000000     0.546930000000   
O      0.127375000000     0.206412500000     0.567330000000   
O      0.110340000000     0.003797500000     0.963530000000   
O      0.177295000000     0.024967500000     0.628180000000   
O      0.202345000000     0.087937500000     0.666585000000   
O      0.072960000000     0.095680000000     0.796930000000   
O      0.122625000000     0.043587500000     0.817325000000   
O      0.139660000000     0.246202500000     0.713530000000   
O      0.024970000000     0.072702500000     0.503180000000   
O      0.087937500000     0.047652500000     0.541585000000   
O      0.095680000000     0.177042500000     0.671930000000   
O      0.043590000000     0.127377500000     0.692325000000   
O      0.246202500000     0.110340000000     0.588530000000   
O      0.225030000000     0.177297500000     0.753180000000   
O      0.162062500000     0.202350000000     0.791585000000   
O      0.154320000000     0.072957500000     0.921930000000   
O      0.206410000000     0.122625000000     0.942325000000   
O      0.003797500000     0.139660000000     0.838530000000   
Mg     0.111325000000     0.279492500000     0.390890000000   
Mg     0.138675000000     0.470507500000     0.140890000000   
Mg     0.220507500000     0.361325000000     0.015890000000   
Mg     0.029492500000     0.388675000000     0.265890000000   
H      0.101742500000     0.273357500000     0.495995000000   
H      0.064322500000     0.462375000000     0.498490000000   
H      0.152237500000     0.428785000000     0.453700000000   
H      0.111002500000     0.392827500000     0.477065000000   
H      0.148257500000     0.476642500000     0.245995000000   
H      0.185677500000     0.287625000000     0.248490000000   
H      0.097762500000     0.321217500000     0.203700000000   
H      0.138997500000     0.357172500000     0.227065000000   
H      0.226642500000     0.351742500000     0.120995000000   
H      0.037625000000     0.314322500000     0.123490000000   
H      0.071215000000     0.402235000000     0.078700000000   
H      0.107172500000     0.361002500000     0.102065000000   
H      0.023357500000     0.398260000000     0.370995000000   
H      0.212375000000     0.435680000000     0.373490000000   
H      0.178785000000     0.347765000000     0.328700000000   
H      0.142827500000     0.388997500000     0.352065000000   
C      0.067967500000     0.448640000000     0.416740000000   
C      0.090017500000     0.461150000000     0.468285000000   
C      0.124852500000     0.426337500000     0.481540000000   
C      0.144672500000     0.429560000000     0.035260000000   
C      0.182032500000     0.301360000000     0.166740000000   
C      0.159982500000     0.288850000000     0.218285000000   
C      0.125147500000     0.323662500000     0.231545000000   
C      0.105327500000     0.320440000000     0.285260000000   
C      0.051357500000     0.317967500000     0.041740000000   
C      0.038850000000     0.340017500000     0.093285000000   
C      0.073662500000     0.374850000000     0.106545000000   
C      0.070437500000     0.394670000000     0.160260000000   
C      0.198642500000     0.432032500000     0.291740000000   
C      0.211150000000     0.409985000000     0.343285000000   
C      0.176337500000     0.375150000000     0.356540000000   
C      0.179562500000     0.355330000000     0.410260000000   
O      0.072705000000     0.475032500000     0.378175000000   
O      0.047655000000     0.412062500000     0.416585000000   
O      0.177040000000     0.404320000000     0.046930000000   
O      0.127375000000     0.456412500000     0.067330000000   
O      0.110340000000     0.253797500000     0.463530000000   
O      0.177295000000     0.274967500000     0.128180000000   
O      0.202345000000     0.337937500000     0.166585000000   
O      0.072960000000     0.345680000000     0.296930000000   
O      0.122625000000     0.293587500000     0.317325000000   
O      0.139660000000     0.496202500000     0.213530000000   
O      0.024970000000     0.322702500000     0.003180000000   
O      0.087937500000     0.297652500000     0.041585000000   
O      0.095680000000     0.427042500000     0.171930000000   
O      0.043590000000     0.377377500000     0.192325000000   
O      0.246202500000     0.360340000000     0.088530000000   
O      0.225030000000     0.427297500000     0.253180000000   
O      0.162062500000     0.452350000000     0.291585000000   
O      0.154320000000     0.322957500000     0.421930000000   
O      0.206410000000     0.372625000000     0.442325000000   
O      0.003797500000     0.389660000000     0.338530000000   
Mg     0.111325000000     0.279492500000     0.890890000000   
Mg     0.138675000000     0.470507500000     0.640890000000   
Mg     0.220507500000     0.361325000000     0.515890000000   
Mg     0.029492500000     0.388675000000     0.765890000000   
H      0.101742500000     0.273357500000     0.995995000000   
H      0.064322500000     0.462375000000     0.998490000000   
H      0.152237500000     0.428785000000     0.953700000000   
H      0.111002500000     0.392827500000     0.977065000000   
H      0.148257500000     0.476642500000     0.745995000000   
H      0.185677500000     0.287625000000     0.748490000000   
H      0.097762500000     0.321217500000     0.703700000000   
H      0.138997500000     0.357172500000     0.727065000000   
H      0.226642500000     0.351742500000     0.620995000000   
H      0.037625000000     0.314322500000     0.623490000000   
H      0.071215000000     0.402235000000     0.578700000000   
H      0.107172500000     0.361002500000     0.602065000000   
H      0.023357500000     0.398260000000     0.870995000000   
H      0.212375000000     0.435680000000     0.873490000000   
H      0.178785000000     0.347765000000     0.828700000000   
H      0.142827500000     0.388997500000     0.852065000000   
C      0.067967500000     0.448640000000     0.916740000000   
C      0.090017500000     0.461150000000     0.968285000000   
C      0.124852500000     0.426337500000     0.981540000000   
C      0.144672500000     0.429560000000     0.535260000000   
C      0.182032500000     0.301360000000     0.666740000000   
C      0.159982500000     0.288850000000     0.718285000000   
C      0.125147500000     0.323662500000     0.731545000000   
C      0.105327500000     0.320440000000     0.785260000000   
C      0.051357500000     0.317967500000     0.541740000000   
C      0.038850000000     0.340017500000     0.593285000000   
C      0.073662500000     0.374850000000     0.606545000000   
C      0.070437500000     0.394670000000     0.660260000000   
C      0.198642500000     0.432032500000     0.791740000000   
C      0.211150000000     0.409985000000     0.843285000000   
C      0.176337500000     0.375150000000     0.856540000000   
C      0.179562500000     0.355330000000     0.910260000000   
O      0.072705000000     0.475032500000     0.878175000000   
O      0.047655000000     0.412062500000     0.916585000000   
O      0.177040000000     0.404320000000     0.546930000000   
O      0.127375000000     0.456412500000     0.567330000000   
O      0.110340000000     0.253797500000     0.963530000000   
O      0.177295000000     0.274967500000     0.628180000000   
O      0.202345000000     0.337937500000     0.666585000000   
O      0.072960000000     0.345680000000     0.796930000000   
O      0.122625000000     0.293587500000     0.817325000000   
O      0.139660000000     0.496202500000     0.713530000000   
O      0.024970000000     0.322702500000     0.503180000000   
O      0.087937500000     0.297652500000     0.541585000000   
O      0.095680000000     0.427042500000     0.671930000000   
O      0.043590000000     0.377377500000     0.692325000000   
O      0.246202500000     0.360340000000     0.588530000000   
O      0.225030000000     0.427297500000     0.753180000000   
O      0.162062500000     0.452350000000     0.791585000000   
O      0.154320000000     0.322957500000     0.921930000000   
O      0.206410000000     0.372625000000     0.942325000000   
O      0.003797500000     0.389660000000     0.838530000000   
Mg     0.111325000000     0.529492500000     0.390890000000   
Mg     0.138675000000     0.720507500000     0.140890000000   
Mg     0.220507500000     0.611325000000     0.015890000000   
Mg     0.029492500000     0.638675000000     0.265890000000   
H      0.101742500000     0.523357500000     0.495995000000   
H      0.064322500000     0.712375000000     0.498490000000   
H      0.152237500000     0.678785000000     0.453700000000   
H      0.111002500000     0.642827500000     0.477065000000   
H      0.148257500000     0.726642500000     0.245995000000   
H      0.185677500000     0.537625000000     0.248490000000   
H      0.097762500000     0.571217500000     0.203700000000   
H      0.138997500000     0.607172500000     0.227065000000   
H      0.226642500000     0.601742500000     0.120995000000   
H      0.037625000000     0.564322500000     0.123490000000   
H      0.071215000000     0.652235000000     0.078700000000   
H      0.107172500000     0.611002500000     0.102065000000   
H      0.023357500000     0.648260000000     0.370995000000   
H      0.212375000000     0.685680000000     0.373490000000   
H      0.178785000000     0.597765000000     0.328700000000   
H      0.142827500000     0.638997500000     0.352065000000   
C      0.067967500000     0.698640000000     0.416740000000   
C      0.090017500000     0.711150000000     0.468285000000   
C      0.124852500000     0.676337500000     0.481540000000   
C      0.144672500000     0.679560000000     0.035260000000   
C      0.182032500000     0.551360000000     0.166740000000   
C      0.159982500000     0.538850000000     0.218285000000   
C      0.125147500000     0.573662500000     0.231545000000   
C      0.105327500000     0.570440000000     0.285260000000   
C      0.051357500000     0.567967500000     0.041740000000   
C      0.038850000000     0.590017500000     0.093285000000   
C      0.073662500000     0.624850000000     0.106545000000   
C      0.070437500000     0.644670000000     0.160260000000   
C      0.198642500000     0.682032500000     0.291740000000   
C      0.211150000000     0.659985000000     0.343285000000   
C      0.176337500000     0.625150000000     0.356540000000   
C      0.179562500000     0.605330000000     0.410260000000   
O      0.072705000000     0.725032500000     0.378175000000   
O      0.047655000000     0.662062500000     0.416585000000   
O      0.177040000000     0.654320000000     0.046930000000   
O      0.127375000000     0.706412500000     0.067330000000   
O      0.110340000000     0.503797500000     0.463530000000   
O      0.177295000000     0.524967500000     0.128180000000   
O      0.202345000000     0.587937500000     0.166585000000   
O      0.072960000000     0.595680000000     0.296930000000   
O      0.122625000000     0.543587500000     0.317325000000   
O      0.139660000000     0.746202500000     0.213530000000   
O      0.024970000000     0.572702500000     0.003180000000   
O      0.087937500000     0.547652500000     0.041585000000   
O      0.095680000000     0.677042500000     0.171930000000   
O      0.043590000000     0.627377500000     0.192325000000   
O      0.246202500000     0.610340000000     0.088530000000   
O      0.225030000000     0.677297500000     0.253180000000   
O      0.162062500000     0.702350000000     0.291585000000   
O      0.154320000000     0.572957500000     0.421930000000   
O      0.206410000000     0.622625000000     0.442325000000   
O      0.003797500000     0.639660000000     0.338530000000   
Mg     0.111325000000     0.529492500000     0.890890000000   
Mg     0.138675000000     0.720507500000     0.640890000000   
Mg     0.220507500000     0.611325000000     0.515890000000   
Mg     0.029492500000     0.638675000000     0.765890000000   
H      0.101742500000     0.523357500000     0.995995000000   
H      0.064322500000     0.712375000000     0.998490000000   
H      0.152237500000     0.678785000000     0.953700000000   
H      0.111002500000     0.642827500000     0.977065000000   
H      0.148257500000     0.726642500000     0.745995000000   
H      0.185677500000     0.537625000000     0.748490000000   
H      0.097762500000     0.571217500000     0.703700000000   
H      0.138997500000     0.607172500000     0.727065000000   
H      0.226642500000     0.601742500000     0.620995000000   
H      0.037625000000     0.564322500000     0.623490000000   
H      0.071215000000     0.652235000000     0.578700000000   
H      0.107172500000     0.611002500000     0.602065000000   
H      0.023357500000     0.648260000000     0.870995000000   
H      0.212375000000     0.685680000000     0.873490000000   
H      0.178785000000     0.597765000000     0.828700000000   
H      0.142827500000     0.638997500000     0.852065000000   
C      0.067967500000     0.698640000000     0.916740000000   
C      0.090017500000     0.711150000000     0.968285000000   
C      0.124852500000     0.676337500000     0.981540000000   
C      0.144672500000     0.679560000000     0.535260000000   
C      0.182032500000     0.551360000000     0.666740000000   
C      0.159982500000     0.538850000000     0.718285000000   
C      0.125147500000     0.573662500000     0.731545000000   
C      0.105327500000     0.570440000000     0.785260000000   
C      0.051357500000     0.567967500000     0.541740000000   
C      0.038850000000     0.590017500000     0.593285000000   
C      0.073662500000     0.624850000000     0.606545000000   
C      0.070437500000     0.644670000000     0.660260000000   
C      0.198642500000     0.682032500000     0.791740000000   
C      0.211150000000     0.659985000000     0.843285000000   
C      0.176337500000     0.625150000000     0.856540000000   
C      0.179562500000     0.605330000000     0.910260000000   
O      0.072705000000     0.725032500000     0.878175000000   
O      0.047655000000     0.662062500000     0.916585000000   
O      0.177040000000     0.654320000000     0.546930000000   
O      0.127375000000     0.706412500000     0.567330000000   
O      0.110340000000     0.503797500000     0.963530000000   
O      0.177295000000     0.524967500000     0.628180000000   
O      0.202345000000     0.587937500000     0.666585000000   
O      0.072960000000     0.595680000000     0.796930000000   
O      0.122625000000     0.543587500000     0.817325000000   
O      0.139660000000     0.746202500000     0.713530000000   
O      0.024970000000     0.572702500000     0.503180000000   
O      0.087937500000     0.547652500000     0.541585000000   
O      0.095680000000     0.677042500000     0.671930000000   
O      0.043590000000     0.627377500000     0.692325000000   
O      0.246202500000     0.610340000000     0.588530000000   
O      0.225030000000     0.677297500000     0.753180000000   
O      0.162062500000     0.702350000000     0.791585000000   
O      0.154320000000     0.572957500000     0.921930000000   
O      0.206410000000     0.622625000000     0.942325000000   
O      0.003797500000     0.639660000000     0.838530000000   
Mg     0.111325000000     0.779492500000     0.390890000000   
Mg     0.138675000000     0.970507500000     0.140890000000   
Mg     0.220507500000     0.861325000000     0.015890000000   
Mg     0.029492500000     0.888675000000     0.265890000000   
H      0.101742500000     0.773357500000     0.495995000000   
H      0.064322500000     0.962375000000     0.498490000000   
H      0.152237500000     0.928785000000     0.453700000000   
H      0.111002500000     0.892827500000     0.477065000000   
H      0.148257500000     0.976642500000     0.245995000000   
H      0.185677500000     0.787625000000     0.248490000000   
H      0.097762500000     0.821217500000     0.203700000000   
H      0.138997500000     0.857172500000     0.227065000000   
H      0.226642500000     0.851742500000     0.120995000000   
H      0.037625000000     0.814322500000     0.123490000000   
H      0.071215000000     0.902235000000     0.078700000000   
H      0.107172500000     0.861002500000     0.102065000000   
H      0.023357500000     0.898260000000     0.370995000000   
H      0.212375000000     0.935680000000     0.373490000000   
H      0.178785000000     0.847765000000     0.328700000000   
H      0.142827500000     0.888997500000     0.352065000000   
C      0.067967500000     0.948640000000     0.416740000000   
C      0.090017500000     0.961150000000     0.468285000000   
C      0.124852500000     0.926337500000     0.481540000000   
C      0.144672500000     0.929560000000     0.035260000000   
C      0.182032500000     0.801360000000     0.166740000000   
C      0.159982500000     0.788850000000     0.218285000000   
C      0.125147500000     0.823662500000     0.231545000000   
C      0.105327500000     0.820440000000     0.285260000000   
C      0.051357500000     0.817967500000     0.041740000000   
C      0.038850000000     0.840017500000     0.093285000000   
C      0.073662500000     0.874850000000     0.106545000000   
C      0.070437500000     0.894670000000     0.160260000000   
C      0.198642500000     0.932032500000     0.291740000000   
C      0.211150000000     0.909985000000     0.343285000000   
C      0.176337500000     0.875150000000     0.356540000000   
C      0.179562500000     0.855330000000     0.410260000000   
O      0.072705000000     0.975032500000     0.378175000000   
O      0.047655000000     0.912062500000     0.416585000000   
O      0.177040000000     0.904320000000     0.046930000000   
O      0.127375000000     0.956412500000     0.067330000000   
O      0.110340000000     0.753797500000     0.463530000000   
O      0.177295000000     0.774967500000     0.128180000000   
O      0.202345000000     0.837937500000     0.166585000000   
O      0.072960000000     0.845680000000     0.296930000000   
O      0.122625000000     0.793587500000     0.317325000000   
O      0.139660000000     0.996202500000     0.213530000000   
O      0.024970000000     0.822702500000     0.003180000000   
O      0.087937500000     0.797652500000     0.041585000000   
O      0.095680000000     0.927042500000     0.171930000000   
O      0.043590000000     0.877377500000     0.192325000000   
O      0.246202500000     0.860340000000     0.088530000000   
O      0.225030000000     0.927297500000     0.253180000000   
O      0.162062500000     0.952350000000     0.291585000000   
O      0.154320000000     0.822957500000     0.421930000000   
O      0.206410000000     0.872625000000     0.442325000000   
O      0.003797500000     0.889660000000     0.338530000000   
Mg     0.111325000000     0.779492500000     0.890890000000   
Mg     0.138675000000     0.970507500000     0.640890000000   
Mg     0.220507500000     0.861325000000     0.515890000000   
Mg     0.029492500000     0.888675000000     0.765890000000   
H      0.101742500000     0.773357500000     0.995995000000   
H      0.064322500000     0.962375000000     0.998490000000   
H      0.152237500000     0.928785000000     0.953700000000   
H      0.111002500000     0.892827500000     0.977065000000   
H      0.148257500000     0.976642500000     0.745995000000   
H      0.185677500000     0.787625000000     0.748490000000   
H      0.097762500000     0.821217500000     0.703700000000   
H      0.138997500000     0.857172500000     0.727065000000   
H      0.226642500000     0.851742500000     0.620995000000   
H      0.037625000000     0.814322500000     0.623490000000   
H      0.071215000000     0.902235000000     0.578700000000   
H      0.107172500000     0.861002500000     0.602065000000   
H      0.023357500000     0.898260000000     0.870995000000   
H      0.212375000000     0.935680000000     0.873490000000   
H      0.178785000000     0.847765000000     0.828700000000   
H      0.142827500000     0.888997500000     0.852065000000   
C      0.067967500000     0.948640000000     0.916740000000   
C      0.090017500000     0.961150000000     0.968285000000   
C      0.124852500000     0.926337500000     0.981540000000   
C      0.144672500000     0.929560000000     0.535260000000   
C      0.182032500000     0.801360000000     0.666740000000   
C      0.159982500000     0.788850000000     0.718285000000   
C      0.125147500000     0.823662500000     0.731545000000   
C      0.105327500000     0.820440000000     0.785260000000   
C      0.051357500000     0.817967500000     0.541740000000   
C      0.038850000000     0.840017500000     0.593285000000   
C      0.073662500000     0.874850000000     0.606545000000   
C      0.070437500000     0.894670000000     0.660260000000   
C      0.198642500000     0.932032500000     0.791740000000   
C      0.211150000000     0.909985000000     0.843285000000   
C      0.176337500000     0.875150000000     0.856540000000   
C      0.179562500000     0.855330000000     0.910260000000   
O      0.072705000000     0.975032500000     0.878175000000   
O      0.047655000000     0.912062500000     0.916585000000   
O      0.177040000000     0.904320000000     0.546930000000   
O      0.127375000000     0.956412500000     0.567330000000   
O      0.110340000000     0.753797500000     0.963530000000   
O      0.177295000000     0.774967500000     0.628180000000   
O      0.202345000000     0.837937500000     0.666585000000   
O      0.072960000000     0.845680000000     0.796930000000   
O      0.122625000000     0.793587500000     0.817325000000   
O      0.139660000000     0.996202500000     0.713530000000   
O      0.024970000000     0.822702500000     0.503180000000   
O      0.087937500000     0.797652500000     0.541585000000   
O      0.095680000000     0.927042500000     0.671930000000   
O      0.043590000000     0.877377500000     0.692325000000   
O      0.246202500000     0.860340000000     0.588530000000   
O      0.225030000000     0.927297500000     0.753180000000   
O      0.162062500000     0.952350000000     0.791585000000   
O      0.154320000000     0.822957500000     0.921930000000   
O      0.206410000000     0.872625000000     0.942325000000   
O      0.003797500000     0.889660000000     0.838530000000   
Mg     0.361325000000     0.029492500000     0.390890000000   
Mg     0.388675000000     0.220507500000     0.140890000000   
Mg     0.470507500000     0.111325000000     0.015890000000   
Mg     0.279492500000     0.138675000000     0.265890000000   
H      0.351742500000     0.023357500000     0.495995000000   
H      0.314322500000     0.212375000000     0.498490000000   
H      0.402237500000     0.178785000000     0.453700000000   
H      0.361002500000     0.142827500000     0.477065000000   
H      0.398257500000     0.226642500000     0.245995000000   
H      0.435677500000     0.037625000000     0.248490000000   
H      0.347762500000     0.071217500000     0.203700000000   
H      0.388997500000     0.107172500000     0.227065000000   
H      0.476642500000     0.101742500000     0.120995000000   
H      0.287625000000     0.064322500000     0.123490000000   
H      0.321215000000     0.152235000000     0.078700000000   
H      0.357172500000     0.111002500000     0.102065000000   
H      0.273357500000     0.148260000000     0.370995000000   
H      0.462375000000     0.185680000000     0.373490000000   
H      0.428785000000     0.097765000000     0.328700000000   
H      0.392827500000     0.138997500000     0.352065000000   
C      0.317967500000     0.198640000000     0.416740000000   
C      0.340017500000     0.211150000000     0.468285000000   
C      0.374852500000     0.176337500000     0.481540000000   
C      0.394672500000     0.179560000000     0.035260000000   